50 50 49
1 1 2
1 2 1
1 1 2
1 2 1
1 1 2
1 2 1
1 1 2
1 2 1
1 1 2
1 2 1
1 1 1
2 2 2
4 5 6
3 8 15
4 20 20
3 1 5
1 1 1
1 2 2
2 2 3
6 4 4
5 4 4
6 5 3
8 6 2
9 8 1
19 10 10
1 3 4
1 4 5
2 6 9
5 8 8
1 9 8
10 10 10
1 0 0
1 0 1
1 1 0
2 4 6
6 4 2
3 5 7
7 5 3
5 5 5
4 4 4
3 3 3
2 2 2
1 1 1
8 9 10
10 10 10
10 10 10
20 20 20
4 6 10
10 10 7
11 1 3
